c Reduced graph for r02_0 generated by Cyril Grelier
p edge 142 1246
e 1 2
e 1 3
e 1 4
e 1 5
e 1 6
e 1 7
e 1 8
e 1 9
e 1 10
e 1 11
e 1 12
e 1 13
e 1 18
e 1 22
e 1 30
e 1 38
e 1 39
e 1 40
e 1 41
e 1 45
e 1 50
e 1 66
e 1 93
e 2 3
e 2 4
e 2 6
e 2 7
e 2 8
e 2 9
e 2 10
e 2 14
e 2 19
e 2 26
e 2 34
e 2 39
e 2 40
e 2 41
e 2 46
e 2 56
e 2 62
e 2 66
e 2 73
e 2 76
e 2 111
e 3 4
e 3 6
e 3 7
e 3 8
e 3 9
e 3 10
e 3 15
e 3 20
e 3 23
e 3 27
e 3 35
e 3 39
e 3 40
e 3 41
e 3 47
e 3 63
e 3 66
e 3 67
e 3 77
e 3 116
e 4 6
e 4 7
e 4 8
e 4 9
e 4 10
e 4 16
e 4 24
e 4 28
e 4 36
e 4 39
e 4 40
e 4 41
e 4 48
e 4 57
e 4 64
e 4 66
e 4 68
e 4 74
e 4 112
e 5 11
e 5 12
e 5 13
e 5 14
e 5 15
e 5 16
e 5 17
e 5 18
e 5 22
e 5 30
e 5 31
e 5 32
e 5 33
e 5 38
e 5 45
e 5 50
e 5 82
e 5 93
e 5 108
e 5 134
e 6 7
e 6 8
e 6 9
e 6 10
e 6 39
e 6 40
e 6 41
e 6 58
e 6 66
e 6 70
e 6 78
e 6 83
e 6 88
e 6 94
e 6 101
e 6 124
e 6 131
e 7 8
e 7 9
e 7 10
e 7 31
e 7 39
e 7 40
e 7 41
e 7 42
e 7 66
e 7 79
e 7 84
e 7 89
e 7 98
e 7 102
e 7 125
e 7 132
e 8 9
e 8 10
e 8 39
e 8 40
e 8 41
e 8 51
e 8 54
e 8 59
e 8 66
e 8 80
e 8 85
e 8 90
e 8 95
e 8 99
e 8 133
e 9 10
e 9 32
e 9 39
e 9 40
e 9 41
e 9 43
e 9 52
e 9 55
e 9 60
e 9 66
e 9 71
e 9 81
e 9 91
e 9 96
e 10 33
e 10 39
e 10 40
e 10 41
e 10 44
e 10 53
e 10 61
e 10 66
e 10 72
e 10 92
e 10 97
e 10 100
e 10 103
e 11 12
e 11 13
e 11 18
e 11 19
e 11 20
e 11 21
e 11 22
e 11 30
e 11 38
e 11 42
e 11 43
e 11 44
e 11 45
e 11 50
e 11 86
e 11 87
e 11 93
e 11 110
e 11 135
e 12 13
e 12 18
e 12 22
e 12 23
e 12 24
e 12 25
e 12 30
e 12 38
e 12 45
e 12 50
e 12 51
e 12 52
e 12 53
e 12 93
e 12 104
e 12 118
e 12 138
e 13 18
e 13 22
e 13 26
e 13 27
e 13 28
e 13 29
e 13 30
e 13 38
e 13 45
e 13 50
e 13 54
e 13 55
e 13 93
e 13 105
e 13 106
e 13 107
e 14 15
e 14 16
e 14 17
e 14 19
e 14 26
e 14 31
e 14 32
e 14 33
e 14 34
e 14 46
e 14 56
e 14 62
e 14 73
e 14 76
e 14 82
e 14 108
e 14 111
e 14 134
e 15 16
e 15 17
e 15 20
e 15 23
e 15 27
e 15 31
e 15 32
e 15 33
e 15 35
e 15 47
e 15 63
e 15 67
e 15 77
e 15 82
e 15 108
e 15 116
e 15 134
e 16 17
e 16 24
e 16 28
e 16 31
e 16 32
e 16 33
e 16 36
e 16 48
e 16 57
e 16 64
e 16 68
e 16 74
e 16 82
e 16 108
e 16 112
e 16 134
e 17 21
e 17 25
e 17 29
e 17 31
e 17 32
e 17 33
e 17 37
e 17 49
e 17 65
e 17 69
e 17 75
e 17 82
e 17 108
e 17 113
e 17 117
e 17 134
e 18 22
e 18 30
e 18 34
e 18 35
e 18 36
e 18 37
e 18 38
e 18 45
e 18 50
e 18 58
e 18 59
e 18 60
e 18 61
e 18 93
e 18 109
e 19 20
e 19 21
e 19 26
e 19 34
e 19 42
e 19 43
e 19 44
e 19 46
e 19 56
e 19 62
e 19 73
e 19 76
e 19 86
e 19 87
e 19 110
e 19 111
e 19 135
e 20 21
e 20 23
e 20 27
e 20 35
e 20 42
e 20 43
e 20 44
e 20 47
e 20 63
e 20 67
e 20 77
e 20 86
e 20 87
e 20 110
e 20 116
e 20 135
e 21 25
e 21 29
e 21 37
e 21 42
e 21 43
e 21 44
e 21 49
e 21 65
e 21 69
e 21 75
e 21 86
e 21 87
e 21 110
e 21 113
e 21 117
e 21 135
e 22 30
e 22 38
e 22 45
e 22 46
e 22 47
e 22 48
e 22 49
e 22 50
e 22 70
e 22 71
e 22 72
e 22 93
e 22 114
e 22 115
e 23 24
e 23 25
e 23 27
e 23 35
e 23 47
e 23 51
e 23 52
e 23 53
e 23 63
e 23 67
e 23 77
e 23 104
e 23 116
e 23 118
e 23 138
e 24 25
e 24 28
e 24 36
e 24 48
e 24 51
e 24 52
e 24 53
e 24 57
e 24 64
e 24 68
e 24 74
e 24 104
e 24 112
e 24 118
e 24 138
e 25 29
e 25 37
e 25 49
e 25 51
e 25 52
e 25 53
e 25 65
e 25 69
e 25 75
e 25 104
e 25 113
e 25 117
e 25 118
e 25 138
e 26 27
e 26 28
e 26 29
e 26 34
e 26 46
e 26 54
e 26 55
e 26 56
e 26 62
e 26 73
e 26 76
e 26 105
e 26 106
e 26 107
e 26 111
e 27 28
e 27 29
e 27 35
e 27 47
e 27 54
e 27 55
e 27 63
e 27 67
e 27 77
e 27 105
e 27 106
e 27 107
e 27 116
e 28 29
e 28 36
e 28 48
e 28 54
e 28 55
e 28 57
e 28 64
e 28 68
e 28 74
e 28 105
e 28 106
e 28 107
e 28 112
e 29 37
e 29 49
e 29 54
e 29 55
e 29 65
e 29 69
e 29 75
e 29 105
e 29 106
e 29 107
e 29 113
e 29 117
e 30 38
e 30 45
e 30 50
e 30 56
e 30 57
e 30 78
e 30 79
e 30 80
e 30 81
e 30 93
e 30 119
e 30 120
e 31 32
e 31 33
e 31 42
e 31 79
e 31 82
e 31 84
e 31 89
e 31 98
e 31 102
e 31 108
e 31 125
e 31 132
e 31 134
e 32 33
e 32 43
e 32 52
e 32 55
e 32 60
e 32 71
e 32 81
e 32 82
e 32 91
e 32 96
e 32 108
e 32 134
e 33 44
e 33 53
e 33 61
e 33 72
e 33 82
e 33 92
e 33 97
e 33 100
e 33 103
e 33 108
e 33 134
e 34 35
e 34 36
e 34 37
e 34 46
e 34 56
e 34 58
e 34 59
e 34 60
e 34 61
e 34 62
e 34 73
e 34 76
e 34 109
e 34 111
e 35 36
e 35 37
e 35 47
e 35 58
e 35 59
e 35 60
e 35 61
e 35 63
e 35 67
e 35 77
e 35 109
e 35 116
e 36 37
e 36 48
e 36 57
e 36 58
e 36 59
e 36 60
e 36 61
e 36 64
e 36 68
e 36 74
e 36 109
e 36 112
e 37 49
e 37 58
e 37 59
e 37 60
e 37 61
e 37 65
e 37 69
e 37 75
e 37 109
e 37 113
e 37 117
e 38 45
e 38 50
e 38 62
e 38 63
e 38 64
e 38 65
e 38 83
e 38 84
e 38 85
e 38 93
e 38 121
e 39 40
e 39 41
e 39 66
e 39 104
e 39 105
e 39 109
e 39 114
e 39 121
e 39 126
e 39 127
e 40 41
e 40 66
e 40 86
e 40 106
e 40 119
e 40 122
e 40 128
e 40 129
e 40 139
e 41 66
e 41 82
e 41 87
e 41 107
e 41 115
e 41 120
e 41 123
e 41 130
e 42 43
e 42 44
e 42 79
e 42 84
e 42 86
e 42 87
e 42 89
e 42 98
e 42 102
e 42 110
e 42 125
e 42 132
e 42 135
e 43 44
e 43 52
e 43 55
e 43 60
e 43 71
e 43 81
e 43 86
e 43 87
e 43 91
e 43 96
e 43 110
e 43 135
e 44 53
e 44 61
e 44 72
e 44 86
e 44 87
e 44 92
e 44 97
e 44 100
e 44 103
e 44 110
e 44 135
e 45 50
e 45 69
e 45 93
e 45 94
e 45 95
e 45 96
e 45 97
e 45 126
e 45 136
e 45 140
e 46 47
e 46 48
e 46 49
e 46 56
e 46 62
e 46 70
e 46 71
e 46 72
e 46 73
e 46 76
e 46 111
e 46 114
e 46 115
e 47 48
e 47 49
e 47 63
e 47 67
e 47 70
e 47 71
e 47 72
e 47 77
e 47 114
e 47 115
e 47 116
e 48 49
e 48 57
e 48 64
e 48 68
e 48 70
e 48 71
e 48 72
e 48 74
e 48 112
e 48 114
e 48 115
e 49 65
e 49 69
e 49 70
e 49 71
e 49 72
e 49 75
e 49 113
e 49 114
e 49 115
e 49 117
e 50 76
e 50 77
e 50 93
e 50 101
e 50 102
e 50 103
e 50 129
e 50 130
e 50 141
e 51 52
e 51 53
e 51 54
e 51 59
e 51 80
e 51 85
e 51 90
e 51 95
e 51 99
e 51 104
e 51 118
e 51 133
e 51 138
e 52 53
e 52 55
e 52 60
e 52 71
e 52 81
e 52 91
e 52 96
e 52 104
e 52 118
e 52 138
e 53 61
e 53 72
e 53 92
e 53 97
e 53 100
e 53 103
e 53 104
e 53 118
e 53 138
e 54 55
e 54 59
e 54 80
e 54 85
e 54 90
e 54 95
e 54 99
e 54 105
e 54 106
e 54 107
e 54 133
e 55 60
e 55 71
e 55 81
e 55 91
e 55 96
e 55 105
e 55 106
e 55 107
e 56 57
e 56 62
e 56 73
e 56 76
e 56 78
e 56 79
e 56 80
e 56 81
e 56 111
e 56 119
e 56 120
e 57 64
e 57 68
e 57 74
e 57 78
e 57 79
e 57 80
e 57 81
e 57 112
e 57 119
e 57 120
e 58 59
e 58 60
e 58 61
e 58 70
e 58 78
e 58 83
e 58 88
e 58 94
e 58 101
e 58 109
e 58 124
e 58 131
e 59 60
e 59 61
e 59 80
e 59 85
e 59 90
e 59 95
e 59 99
e 59 109
e 59 133
e 60 61
e 60 71
e 60 81
e 60 91
e 60 96
e 60 109
e 61 72
e 61 92
e 61 97
e 61 100
e 61 103
e 61 109
e 62 63
e 62 64
e 62 65
e 62 73
e 62 76
e 62 83
e 62 84
e 62 85
e 62 111
e 62 121
e 63 64
e 63 65
e 63 67
e 63 77
e 63 83
e 63 84
e 63 85
e 63 116
e 63 121
e 64 65
e 64 68
e 64 74
e 64 83
e 64 84
e 64 85
e 64 112
e 64 121
e 65 69
e 65 75
e 65 83
e 65 84
e 65 85
e 65 113
e 65 117
e 65 121
e 66 108
e 66 110
e 66 118
e 66 136
e 66 137
e 66 142
e 67 68
e 67 77
e 67 88
e 67 89
e 67 90
e 67 91
e 67 92
e 67 116
e 67 122
e 67 123
e 68 74
e 68 88
e 68 89
e 68 90
e 68 91
e 68 92
e 68 112
e 68 122
e 68 123
e 69 75
e 69 94
e 69 95
e 69 96
e 69 97
e 69 113
e 69 117
e 69 126
e 69 136
e 69 140
e 70 71
e 70 72
e 70 78
e 70 83
e 70 88
e 70 94
e 70 101
e 70 114
e 70 115
e 70 124
e 70 131
e 71 72
e 71 81
e 71 91
e 71 96
e 71 114
e 71 115
e 72 92
e 72 97
e 72 100
e 72 103
e 72 114
e 72 115
e 73 74
e 73 75
e 73 76
e 73 98
e 73 99
e 73 100
e 73 111
e 73 127
e 73 128
e 73 137
e 74 75
e 74 98
e 74 99
e 74 100
e 74 112
e 74 127
e 74 128
e 74 137
e 75 98
e 75 99
e 75 100
e 75 113
e 75 117
e 75 127
e 75 128
e 75 137
e 76 77
e 76 101
e 76 102
e 76 103
e 76 111
e 76 129
e 76 130
e 76 141
e 77 101
e 77 102
e 77 103
e 77 116
e 77 129
e 77 130
e 77 141
e 78 79
e 78 80
e 78 81
e 78 83
e 78 88
e 78 94
e 78 101
e 78 119
e 78 120
e 78 124
e 78 131
e 79 80
e 79 81
e 79 84
e 79 89
e 79 98
e 79 102
e 79 119
e 79 120
e 79 125
e 79 132
e 80 81
e 80 85
e 80 90
e 80 95
e 80 99
e 80 119
e 80 120
e 80 133
e 81 91
e 81 96
e 81 119
e 81 120
e 82 87
e 82 107
e 82 108
e 82 115
e 82 120
e 82 123
e 82 130
e 82 134
e 83 84
e 83 85
e 83 88
e 83 94
e 83 101
e 83 121
e 83 124
e 83 131
e 84 85
e 84 89
e 84 98
e 84 102
e 84 121
e 84 125
e 84 132
e 85 90
e 85 95
e 85 99
e 85 121
e 85 133
e 86 87
e 86 106
e 86 110
e 86 119
e 86 122
e 86 128
e 86 129
e 86 135
e 86 139
e 87 107
e 87 110
e 87 115
e 87 120
e 87 123
e 87 130
e 87 135
e 88 89
e 88 90
e 88 91
e 88 92
e 88 94
e 88 101
e 88 122
e 88 123
e 88 124
e 88 131
e 89 90
e 89 91
e 89 92
e 89 98
e 89 102
e 89 122
e 89 123
e 89 125
e 89 132
e 90 91
e 90 92
e 90 95
e 90 99
e 90 122
e 90 123
e 90 133
e 91 92
e 91 96
e 91 122
e 91 123
e 92 97
e 92 100
e 92 103
e 92 122
e 92 123
e 93 111
e 93 112
e 93 113
e 93 124
e 93 125
e 93 139
e 94 95
e 94 96
e 94 97
e 94 101
e 94 124
e 94 126
e 94 131
e 94 136
e 94 140
e 95 96
e 95 97
e 95 99
e 95 126
e 95 133
e 95 136
e 95 140
e 96 97
e 96 126
e 96 136
e 96 140
e 97 100
e 97 103
e 97 126
e 97 136
e 97 140
e 98 99
e 98 100
e 98 102
e 98 125
e 98 127
e 98 128
e 98 132
e 98 137
e 99 100
e 99 127
e 99 128
e 99 133
e 99 137
e 100 103
e 100 127
e 100 128
e 100 137
e 101 102
e 101 103
e 101 124
e 101 129
e 101 130
e 101 131
e 101 141
e 102 103
e 102 125
e 102 129
e 102 130
e 102 132
e 102 141
e 103 129
e 103 130
e 103 141
e 104 105
e 104 109
e 104 114
e 104 118
e 104 121
e 104 126
e 104 127
e 104 138
e 105 106
e 105 107
e 105 109
e 105 114
e 105 121
e 105 126
e 105 127
e 106 107
e 106 119
e 106 122
e 106 128
e 106 129
e 106 139
e 107 115
e 107 120
e 107 123
e 107 130
e 108 110
e 108 118
e 108 134
e 108 136
e 108 137
e 108 142
e 109 114
e 109 121
e 109 126
e 109 127
e 110 118
e 110 135
e 110 136
e 110 137
e 110 142
e 111 112
e 111 113
e 111 124
e 111 125
e 111 139
e 112 113
e 112 124
e 112 125
e 112 139
e 113 117
e 113 124
e 113 125
e 113 139
e 114 115
e 114 121
e 114 126
e 114 127
e 115 120
e 115 123
e 115 130
e 116 117
e 116 131
e 116 132
e 116 133
e 116 142
e 117 131
e 117 132
e 117 133
e 117 142
e 118 136
e 118 137
e 118 138
e 118 142
e 119 120
e 119 122
e 119 128
e 119 129
e 119 139
e 120 123
e 120 130
e 121 126
e 121 127
e 122 123
e 122 128
e 122 129
e 122 139
e 123 130
e 124 125
e 124 131
e 124 139
e 125 132
e 125 139
e 126 127
e 126 136
e 126 140
e 127 128
e 127 137
e 128 129
e 128 137
e 128 139
e 129 130
e 129 139
e 129 141
e 130 141
e 131 132
e 131 133
e 131 142
e 132 133
e 132 142
e 133 142
e 134 135
e 134 138
e 134 140
e 134 141
e 135 138
e 135 140
e 135 141
e 136 137
e 136 140
e 136 142
e 137 142
e 138 140
e 138 141
e 140 141
